<number of tasks>
50

<cycle time>
1000

<order strength>
0.599


<task times>
1 426
2 539
3 354
4 274
5 434
6 484
7 594
8 416
9 325
10 640
11 378
12 643
13 501
14 681
15 522
16 500
17 493
18 422
19 441
20 222
21 632
22 433
23 584
24 385
25 486
26 594
27 570
28 383
29 275
30 531
31 502
32 594
33 523
34 448
35 448
36 618
37 525
38 539
39 371
40 346
41 357
42 609
43 558
44 530
45 349
46 398
47 483
48 363
49 382
50 758

<precedence relations>
1,8
2,8
3,8
4,8
5,42
6,25
7,9
8,10
8,11
8,12
8,13
8,14
8,15
8,16
9,16
9,18
10,19
10,21
11,18
12,40
12,41
13,34
15,19
15,22
16,17
16,32
17,25
18,21
18,22
18,24
19,20
19,23
19,24
20,25
21,25
22,25
23,26
23,34
24,26
24,27
24,41
25,28
25,29
25,30
25,31
26,32
26,36
26,40
27,43
29,33
29,35
30,36
30,37
31,34
31,43
33,42
34,42
35,38
36,38
36,44
37,39
37,40
37,41
37,42
38,42
40,43
40,45
41,44
42,46
42,47
42,48
42,49
42,50

<end>
